
Gurobi 11.0.0 (linux64) logging started Thu Jan  9 14:41:48 2025

Set parameter LogFile to value "gurobi.log"
Set parameter InfUnbdInfo to value 1
Gurobi Optimizer version 11.0.0 build v11.0.0rc2 (linux64 - "Ubuntu 22.04.4 LTS")

CPU model: AMD EPYC 7V13 64-Core Processor, instruction set [SSE2|AVX|AVX2]
Thread count: 128 physical cores, 128 logical processors, using up to 32 threads

Optimize a model with 106 rows, 429 columns and 329 nonzeros
Model fingerprint: 0x11a8f874
Model has 312 quadratic constraints
Model has 30 general constraints
Variable types: 95 continuous, 334 integer (0 binary)
Coefficient statistics:
  Matrix range     [1e+00, 2e+01]
  QMatrix range    [1e+00, 2e+02]
  QLMatrix range   [1e+00, 2e+02]
  Objective range  [1e+00, 1e+00]
  Bounds range     [1e+00, 2e+06]
  RHS range        [1e+00, 2e+06]
  QRHS range       [2e+02, 9e+03]
Using branch priorities (all 0).
Presolve added 84 rows and 46 columns
Presolve time: 0.01s
Presolved: 1029 rows, 885 columns, 3660 nonzeros
Presolved model has 269 SOS constraint(s)
Presolved model has 87 bilinear constraint(s)
Warning: Model contains variables with very large bounds participating
         in product terms.
         Presolve was not able to compute smaller bounds for these variables.
         Consider bounding these variables or reformulating the model.


Solving non-convex MIQCP

Variable types: 247 continuous, 638 integer (238 binary)

Root relaxation: objective 1.785656e+02, 320 iterations, 0.00 seconds (0.00 work units)

    Nodes    |    Current Node    |     Objective Bounds      |     Work
 Expl Unexpl |  Obj  Depth IntInf | Incumbent    BestBd   Gap | It/Node Time

     0     0  178.56561    0  161          -  178.56561      -     -    0s
     0     0  178.57041    0  171          -  178.57041      -     -    0s
     0     0  317.06304    0  280          -  317.06304      -     -    0s
H    0     0                    254418.87500  355.14705   100%     -    0s
     0     0  355.14705    0  323 254418.875  355.14705   100%     -    0s
H    0     0                    251919.31250  355.14705   100%     -    0s
     0     0  355.14705    0  302 251919.313  355.14705   100%     -    0s
     0     0  455.74489    0  338 251919.313  455.74489   100%     -    0s
     0     0  455.74489    0  337 251919.313  455.74489   100%     -    0s
     0     0  593.53472    0  329 251919.313  593.53472   100%     -    0s
     0     0  912.76687    0  200 251919.313  912.76687   100%     -    0s
H    0     0                    145557.51421  912.76687  99.4%     -    0s
     0     0 1125.55317    0  324 145557.514 1125.55317  99.2%     -    0s
     0     0 1586.67132    0  224 145557.514 1586.67132  98.9%     -    0s
     0     0 2583.29884    0  312 145557.514 2583.29884  98.2%     -    0s
     0     0 3009.37061    0  313 145557.514 3009.37061  97.9%     -    0s
     0     0 3009.37061    0  280 145557.514 3009.37061  97.9%     -    0s
     0     0 3063.91484    0  312 145557.514 3063.91484  97.9%     -    0s
     0     0 3187.57041    0  316 145557.514 3187.57041  97.8%     -    0s
     0     0 3535.05350    0  327 145557.514 3535.05350  97.6%     -    0s
H    0     0                    140748.25650 3535.05350  97.5%     -    0s
     0     0 3691.13092    0  311 140748.257 3691.13092  97.4%     -    0s
     0     0 3760.26873    0  326 140748.257 3760.26873  97.3%     -    0s
H    0     0                    129822.12524 4069.25814  96.9%     -    0s
     0     0 4069.25814    0  305 129822.125 4069.25814  96.9%     -    0s
H    0     0                    116343.81250 4627.58848  96.0%     -    0s
H    0     0                    61528.276540 4627.58848  92.5%     -    0s
     0     0 4627.58848    0  303 61528.2765 4627.58848  92.5%     -    0s
     0     0 4685.46388    0  300 61528.2765 4685.46388  92.4%     -    0s
     0     0 5735.27797    0  310 61528.2765 5735.27797  90.7%     -    0s
     0     0 5810.26083    0  260 61528.2765 5810.26083  90.6%     -    0s
     0     0 6139.77133    0  278 61528.2765 6139.77133  90.0%     -    1s
     0     0 6139.77133    0  277 61528.2765 6139.77133  90.0%     -    1s
     0     0 6267.21743    0  227 61528.2765 6267.21743  89.8%     -    1s
     0     0 6559.72784    0  215 61528.2765 6559.72784  89.3%     -    1s
     0     0 7576.56455    0  237 61528.2765 7576.56455  87.7%     -    1s
     0     0 7780.46956    0  266 61528.2765 7780.46956  87.4%     -    1s
     0     0 7940.84883    0  236 61528.2765 7940.84883  87.1%     -    1s
     0     0 8012.34954    0  236 61528.2765 8012.34954  87.0%     -    1s
     0     0 8437.39439    0  238 61528.2765 8437.39439  86.3%     -    1s
     0     0 9082.15342    0  232 61528.2765 9082.15342  85.2%     -    1s
     0     0 9082.15342    0  232 61528.2765 9082.15342  85.2%     -    1s
     0     0 9408.01254    0  243 61528.2765 9408.01254  84.7%     -    1s
     0     0 9480.78648    0  244 61528.2765 9480.78648  84.6%     -    1s
     0     0 9563.23222    0  231 61528.2765 9563.23222  84.5%     -    1s
     0     0 9966.81867    0  231 61528.2765 9966.81867  83.8%     -    1s
H    0     0                    55127.081915 10812.3156  80.4%     -    1s
H    0     0                    54226.507041 13147.3763  75.8%     -    1s
H    0     0                    50437.520626 13147.3763  73.9%     -    1s
     0     0 13147.3763    0   70 50437.5206 13147.3763  73.9%     -    1s
     0     0 13147.3763    0   64 50437.5206 13147.3763  73.9%     -    4s
H    0     0                    50437.270626 13147.3763  73.9%     -    4s
     0     0 13147.3763    0  115 50437.2706 13147.3763  73.9%     -    4s
     0     0 13147.3763    0  104 50437.2706 13147.3763  73.9%     -    4s
     0     0 13147.3763    0   84 50437.2706 13147.3763  73.9%     -    5s
     0     0 13147.3763    0  108 50437.2706 13147.3763  73.9%     -    5s
     0     0 13147.3763    0  100 50437.2706 13147.3763  73.9%     -    5s
     0     0 13147.3763    0   82 50437.2706 13147.3763  73.9%     -    5s
H    0     0                    50437.145626 13147.3763  73.9%     -    5s
     0     0 13147.3763    0   82 50437.1456 13147.3763  73.9%     -    5s
     0     0 13147.3763    0   73 50437.1456 13147.3763  73.9%     -    6s
     0     0 13147.3763    0   73 50437.1456 13147.3763  73.9%     -    6s
     0     0 13147.3763    0   74 50437.1456 13147.3763  73.9%     -    6s
     0     0 13147.3763    0   74 50437.1456 13147.3763  73.9%     -    7s
     0     2 13147.3763    0   66 50437.1456 13147.3763  73.9%     -    7s
H   44    42                    50437.083126 13147.3763  73.9%  71.9    8s
   353   169 44500.6101   16   50 50437.0831 13147.3763  73.9%  32.1   10s
* 1028   319              36    47940.606511 13147.3763  72.6%  20.5   11s
* 1484   283              32    47834.307098 13147.3763  72.5%  17.8   12s
* 1621   327              32    47550.498541 13147.3763  72.4%  17.4   12s
* 1782   327              34    46934.369598 13147.3763  72.0%  16.6   12s
H 2345   218                    46261.555000 13147.3763  71.6%  15.8   13s
* 2357   218              35    46219.555000 13147.3763  71.6%  15.8   13s
H 2490   188                    46219.492500 13147.3763  71.6%  15.6   13s
* 2520   188              33    45880.234188 13147.3763  71.3%  15.5   13s
H 2580   188                    45520.911883 13147.3763  71.1%  15.5   13s
H 2698   188                    44674.307098 13147.3763  70.6%  15.1   13s
H 2704   188                    44674.119598 13147.3763  70.6%  15.1   13s
H 2771   188                    44646.873541 13147.3763  70.6%  14.9   13s
* 2953    61              32    44609.811041 13215.1821  70.4%  14.5   14s
* 3007    61              30    44609.561041 13215.1821  70.4%  14.3   14s
* 3174    55              39    44554.592189 26063.8642  41.5%  14.1   14s
* 3219    55              30    44221.617500 26063.8642  41.1%  14.0   14s
  3522    96 44175.3193   31    5 44221.6175 44086.9765  0.30%  13.3   15s
* 3538    96              28    44221.492500 44087.2094  0.30%  13.3   15s

Cutting planes:
  Cover: 17
  Implied bound: 250
  Clique: 1
  MIR: 8
  Flow cover: 8
  Inf proof: 1
  Zero half: 1
  Network: 1
  RLT: 16
  Relax-and-lift: 8
  BQP: 1

Explored 4581 nodes (57985 simplex iterations) in 16.32 seconds (0.91 work units)
Thread count was 32 (of 128 available processors)

Solution count 10: 44221.5 44221.6 44554.6 ... 45880.2

Optimal solution found (tolerance 1.00e-04)
Warning: max constraint violation (9.5474e-04) exceeds tolerance
Warning: max general constraint violation (9.5474e-04) exceeds tolerance
Best objective 4.422149249975e+04, best bound 4.422149249975e+04, gap 0.0000%

Gurobi 11.0.0 (linux64) logging started Fri Jan 10 12:27:41 2025

Set parameter LogFile to value "gurobi.log"
Set parameter InfUnbdInfo to value 1
Gurobi Optimizer version 11.0.0 build v11.0.0rc2 (linux64 - "Ubuntu 22.04.4 LTS")

CPU model: AMD EPYC 7V13 64-Core Processor, instruction set [SSE2|AVX|AVX2]
Thread count: 128 physical cores, 128 logical processors, using up to 32 threads

Optimize a model with 106 rows, 429 columns and 329 nonzeros
Model fingerprint: 0x3e8adb4b
Model has 312 quadratic constraints
Model has 30 general constraints
Variable types: 95 continuous, 334 integer (0 binary)
Coefficient statistics:
  Matrix range     [1e+00, 2e+01]
  QMatrix range    [1e+00, 2e+02]
  QLMatrix range   [1e+00, 2e+02]
  Objective range  [1e+00, 1e+00]
  Bounds range     [1e+00, 2e+06]
  RHS range        [1e+00, 2e+06]
  QRHS range       [2e+02, 1e+04]
Using branch priorities (all 0).
Presolve added 84 rows and 46 columns
Presolve time: 0.01s
Presolved: 1029 rows, 885 columns, 3660 nonzeros
Presolved model has 269 SOS constraint(s)
Presolved model has 87 bilinear constraint(s)
Warning: Model contains variables with very large bounds participating
         in product terms.
         Presolve was not able to compute smaller bounds for these variables.
         Consider bounding these variables or reformulating the model.


Solving non-convex MIQCP

Variable types: 247 continuous, 638 integer (238 binary)

Root relaxation: objective 1.785656e+02, 334 iterations, 0.00 seconds (0.00 work units)

    Nodes    |    Current Node    |     Objective Bounds      |     Work
 Expl Unexpl |  Obj  Depth IntInf | Incumbent    BestBd   Gap | It/Node Time

     0     0  178.56561    0  163          -  178.56561      -     -    0s
     0     0  178.57041    0  166          -  178.57041      -     -    0s
     0     0  317.06304    0  277          -  317.06304      -     -    0s
H    0     0                    254418.87500  355.14705   100%     -    0s
     0     0  355.14705    0  342 254418.875  355.14705   100%     -    0s
     0     0  355.14705    0  340 254418.875  355.14705   100%     -    0s
H    0     0                    254418.62500  355.14705   100%     -    0s
     0     0  355.14705    0  329 254418.625  355.14705   100%     -    0s
     0     0  355.14705    0  168 254418.625  355.14705   100%     -    0s
H    0     0                    84127.937500  355.14705   100%     -    0s
     0     0  376.84156    0  333 84127.9375  376.84156   100%     -    0s
     0     0  746.91967    0  336 84127.9375  746.91967  99.1%     -    0s
H    0     0                    81127.875000  746.91967  99.1%     -    0s
     0     0 1125.55317    0  195 81127.8750 1125.55317  98.6%     -    0s
     0     0 1518.65763    0  137 81127.8750 1518.65763  98.1%     -    0s
     0     0 2523.96358    0  269 81127.8750 2523.96358  96.9%     -    0s
     0     0 2523.96358    0  267 81127.8750 2523.96358  96.9%     -    0s
     0     0 2809.55745    0  323 81127.8750 2809.55745  96.5%     -    0s
     0     0 3031.15846    0  288 81127.8750 3031.15846  96.3%     -    0s
     0     0 3187.57041    0  288 81127.8750 3187.57041  96.1%     -    0s
     0     0 3339.18180    0  287 81127.8750 3339.18180  95.9%     -    0s
     0     0 3424.38080    0  302 81127.8750 3424.38080  95.8%     -    0s
     0     0 3424.38080    0  302 81127.8750 3424.38080  95.8%     -    0s
     0     0 3566.58128    0  280 81127.8750 3566.58128  95.6%     -    0s
     0     0 3737.73660    0  287 81127.8750 3737.73660  95.4%     -    0s
     0     0 3760.26873    0  270 81127.8750 3760.26873  95.4%     -    0s
     0     0 4069.25814    0  288 81127.8750 4069.25814  95.0%     -    0s
H    0     0                    81127.437500 4069.25814  95.0%     -    0s
     0     0 4209.06361    0  325 81127.4375 4209.06361  94.8%     -    0s
     0     0 4466.00578    0  293 81127.4375 4466.00578  94.5%     -    0s
     0     0 4778.94408    0  295 81127.4375 4778.94408  94.1%     -    0s
     0     0 5065.10850    0  297 81127.4375 5065.10850  93.8%     -    0s
     0     0 5065.10850    0  268 81127.4375 5065.10850  93.8%     -    0s
     0     0 5810.26084    0  277 81127.4375 5810.26084  92.8%     -    0s
     0     0 5940.64095    0  285 81127.4375 5940.64095  92.7%     -    0s
     0     0 6089.16526    0  311 81127.4375 6089.16526  92.5%     -    0s
     0     0 6301.18683    0  279 81127.4375 6301.18683  92.2%     -    0s
H    0     0                    74803.326660 6413.39726  91.4%     -    0s
     0     0 6416.49639    0  287 74803.3267 6416.49639  91.4%     -    0s
     0     0 6736.39902    0  268 74803.3267 6736.39902  91.0%     -    0s
     0     0 7167.43608    0  264 74803.3267 7167.43608  90.4%     -    0s
H    0     0                    74802.951660 7167.43608  90.4%     -    0s
     0     0 7345.93770    0  261 74802.9517 7345.93770  90.2%     -    0s
     0     0 7560.41828    0  272 74802.9517 7560.41828  89.9%     -    0s
     0     0 7585.15334    0  300 74802.9517 7585.15334  89.9%     -    0s
     0     0 9277.95383    0  285 74802.9517 9277.95383  87.6%     -    0s
     0     0 9277.95383    0  210 74802.9517 9277.95383  87.6%     -    0s
     0     0 9277.95383    0  225 74802.9517 9277.95383  87.6%     -    0s
     0     0 9277.95383    0  283 74802.9517 9277.95383  87.6%     -    0s
     0     0 9277.95383    0  288 74802.9517 9277.95383  87.6%     -    0s
     0     0 10641.4905    0  114 74802.9517 10641.4905  85.8%     -    0s
     0     0 10641.4905    0   75 74802.9517 10641.4905  85.8%     -    2s
H    0     0                    51730.077658 10641.4905  79.4%     -    2s
     0     0 10641.4905    0  119 51730.0777 10641.4905  79.4%     -    2s
     0     0 10641.4905    0  141 51730.0777 10641.4905  79.4%     -    2s
     0     0 10641.4905    0   60 51730.0777 10641.4905  79.4%     -    2s
H    0     0                    51730.077435 10641.4905  79.4%     -    3s
     0     0 10641.4905    0   59 51730.0774 10641.4905  79.4%     -    3s
     0     0 10641.4905    0   58 51730.0774 10641.4905  79.4%     -    3s
     0     0 10641.4905    0   61 51730.0774 10641.4905  79.4%     -    3s
     0     0 10641.4905    0   50 51730.0774 10641.4905  79.4%     -    3s
     0     0 10641.4905    0   82 51730.0774 10641.4905  79.4%     -    3s
     0     0 10641.4905    0   63 51730.0774 10641.4905  79.4%     -    3s
     0     0 10641.4905    0  109 51730.0774 10641.4905  79.4%     -    4s
     0     0 10641.4905    0   61 51730.0774 10641.4905  79.4%     -    4s
     0     0 10641.4905    0   55 51730.0774 10641.4905  79.4%     -    4s
H    0     0                    47355.077435 10641.4905  77.5%     -    5s
H    0     2                    47354.577435 10641.4905  77.5%     -    5s
     0     2 10641.4905    0   55 47354.5774 10641.4905  77.5%     -    5s
H   30    33                    47354.452435 10641.4905  77.5%  77.0    5s
H   32    33                    47354.202434 10641.4905  77.5%  74.4    5s
H   87    87                    47354.139935 10641.4905  77.5%  49.1    6s
H  182   150                    47354.014934 10641.4905  77.5%  35.4    6s
H  212   150                    47353.702435 10641.4905  77.5%  37.9    6s
H  532   260                    47353.577435 10641.4905  77.5%  27.9    7s
H  573   303                    47353.514935 10641.4905  77.5%  26.8    7s
H  865   483                    46674.394542 10641.4905  77.2%  22.3    7s
H  955   483                    42556.364314 10641.4905  75.0%  21.6    7s
H  967   483                    41706.551814 10641.4905  74.5%  21.4    7s
H  985   483                    39394.974169 10641.4905  73.0%  21.1    7s
H  997   483                    37561.362782 10641.4905  71.7%  20.8    7s
H 1091   409                    36483.187298 10641.4905  70.8%  20.6    8s
H 1277   372                    36443.124798 10641.4905  70.8%  20.7    8s
* 2114   217              33    36187.694318 24531.8688  32.2%  17.3    8s
* 2136   217              34    36137.506818 24531.8688  32.1%  17.2    8s
* 2239   191              32    35200.911669 31441.2862  10.7%  16.7    9s
* 2571     5              31    35183.849169 35166.4310  0.05%  15.2    9s
* 2572     5              31    35183.599169 35166.4310  0.05%  15.2    9s

Cutting planes:
  Gomory: 9
  Cover: 6
  Implied bound: 188
  MIR: 18
  Flow cover: 19
  Network: 2
  RLT: 22
  Relax-and-lift: 17

Explored 2718 nodes (45672 simplex iterations) in 9.28 seconds (0.75 work units)
Thread count was 32 (of 128 available processors)

Solution count 10: 35183.6 35183.8 35200.9 ... 41706.6

Optimal solution found (tolerance 1.00e-04)
Warning: max constraint violation (9.5474e-04) exceeds tolerance
Warning: max general constraint violation (9.5474e-04) exceeds tolerance
Best objective 3.518359916881e+04, best bound 3.518348342807e+04, gap 0.0003%
